sat
(:max-memory                   18.11
 :memory                       17.97
 :nlsat-irrational-assignments 2
 :nlsat-propagations           4
 :nlsat-stages                 7
 :num-allocs                   5604
 :rlimit-count                 1345
 :time                         0.00
 :total-time                   0.01)
